Maximize
  1.2 x_basketball_tournament + 0.5 x_horse_race + 0.1 x_soccer_game
Subject To
  c1: x_basketball_tournament + x_horse_race + x_soccer_game <= 100000
  c2: 0.2 x_basketball_tournament + 0.05 x_horse_race - 0.2 x_soccer_game <= 0
End